ษออออออออออออออออออออออออออออออออออออออออออออออออออออออออออออออออออออออออออออออป
บ  Mukellef Borc Dokumu                                         Sayfa No:      บ
ฬออออออออออออออออออออออออออออออออออออออออออออออออออออออออออออออออออออออออออออออน
บ ฺฤฤฤฤฤฤฤฤฤฤฤฤฤฤฤฤฤฤฤฤฤฤฤฤฤฤฤฤฤฤฤฤฤฤฤฤฤฤฤฤฤฤฤฤฤฤฤฤฤฤฤฤฤฤฤฤฤฤฤฤฤฤฤฤฤฤฤฤฤฤฤฤฤฤฟ บ
บ ณUnvan                                 V.D                 V.N             ณ บ
บ ณToplam Faiz Oran (binde)             Taksit Says                       ณ บ
บ รฤฤฤฤฤฤฤฤฤฤฤฤฤฤฤฤฤฤฤฤฤฤฤฤฤฤฤฤฤฤฤฤฤฤฤฤฤฤฤฤฤฤฤฤฤฤฤฤฤฤฤฤฤฤฤฤฤฤฤฤฤฤฤฤฤฤฤฤฤฤฤฤฤฤด บ
บ ณVadeli Bor Toplam                   Aylk Bor Tutar                   ณ บ
บ ภฤฤฤฤฤฤฤฤฤฤฤฤฤฤฤฤฤฤฤฤฤฤฤฤฤฤฤฤฤฤฤฤฤฤฤฤฤฤฤฤฤฤฤฤฤฤฤฤฤฤฤฤฤฤฤฤฤฤฤฤฤฤฤฤฤฤฤฤฤฤฤฤฤฤู บ
บ ฺฤฤฤฤฤฤฤฤฤฤฤฤฤยฤฤฤฤฤฤฤฤยฤฤฤฤฤฤฤฤฤฤฤฤฤฤฤฤยฤฤฤฤฤฤฤฤฤฤฤฤฤฤฤฤยฤฤฤฤฤฤฤฤฤฤฤฤฤฤฤฤฤฟ บ
บ ณ    Tarih    ณ  Oran  ณ    Ana Para    ณ   Faiz Tutar  ณ  Toplam  Bor   ณ บ
บ รฤฤฤฤฤฤฤฤฤฤฤฤฤมฤฤฤฤฤฤฤฤลฤฤฤฤฤฤฤฤฤฤฤฤฤฤฤฤลฤฤฤฤฤฤฤฤฤฤฤฤฤฤฤฤลฤฤฤฤฤฤฤฤฤฤฤฤฤฤฤฤฤด บ
บ ณ      D e v i r       ณ                ณ                ณ                 ณ บ
บ รฤฤฤฤฤฤฤฤฤฤฤฤฤยฤฤฤฤฤฤฤฤลฤฤฤฤฤฤฤฤฤฤฤฤฤฤฤฤลฤฤฤฤฤฤฤฤฤฤฤฤฤฤฤฤลฤฤฤฤฤฤฤฤฤฤฤฤฤฤฤฤฤด บ
บ ณ             ณ        ณ                ณ                ณ                 ณ บ
บ ณ             ณ        ณ                ณ                ณ                 ณ บ
บ ณ             ณ        ณ                ณ                ณ                 ณ บ
บ ณ             ณ        ณ                ณ                ณ                 ณ บ
บ ณ             ณ        ณ                ณ                ณ                 ณ บ
บ ณ             ณ        ณ                ณ                ณ                 ณ บ
บ ณ             ณ        ณ                ณ                ณ                 ณ บ
บ ณ             ณ        ณ                ณ                ณ                 ณ บ
บ ณ             ณ        ณ                ณ                ณ                 ณ บ
บ ณ             ณ        ณ                ณ                ณ                 ณ บ
บ ณ             ณ        ณ                ณ                ณ                 ณ บ
บ ณ             ณ        ณ                ณ                ณ                 ณ บ
บ ณ             ณ        ณ                ณ                ณ                 ณ บ
บ ณ             ณ        ณ                ณ                ณ                 ณ บ
บ ณ             ณ        ณ                ณ                ณ                 ณ บ
บ ณ             ณ        ณ                ณ                ณ                 ณ บ
บ ณ             ณ        ณ                ณ                ณ                 ณ บ
บ ณ             ณ        ณ                ณ                ณ                 ณ บ
บ ณ             ณ        ณ                ณ                ณ                 ณ บ
บ ณ             ณ        ณ                ณ                ณ                 ณ บ
บ ณ             ณ        ณ                ณ                ณ                 ณ บ
บ ณ             ณ        ณ                ณ                ณ                 ณ บ
บ ณ             ณ        ณ                ณ                ณ                 ณ บ
บ ณ             ณ        ณ                ณ                ณ                 ณ บ
บ ณ             ณ        ณ                ณ                ณ                 ณ บ
บ ณ             ณ        ณ                ณ                ณ                 ณ บ
บ ณ             ณ        ณ                ณ                ณ                 ณ บ
บ ณ             ณ        ณ                ณ                ณ                 ณ บ
บ ณ             ณ        ณ                ณ                ณ                 ณ บ
บ ณ             ณ        ณ                ณ                ณ                 ณ บ
บ ณ             ณ        ณ                ณ                ณ                 ณ บ
บ ณ             ณ        ณ                ณ                ณ                 ณ บ
บ ณ             ณ        ณ                ณ                ณ                 ณ บ
บ ณ             ณ        ณ                ณ                ณ                 ณ บ
บ ณ             ณ        ณ                ณ                ณ                 ณ บ
บ ณ             ณ        ณ                ณ                ณ                 ณ บ
บ ณ             ณ        ณ                ณ                ณ                 ณ บ
บ ณ             ณ        ณ                ณ                ณ                 ณ บ
บ ณ             ณ        ณ                ณ                ณ                 ณ บ
บ ณ             ณ        ณ                ณ                ณ                 ณ บ
บ ณ             ณ        ณ                ณ                ณ                 ณ บ
บ ณ             ณ        ณ                ณ                ณ                 ณ บ
บ รฤฤฤฤฤฤฤฤฤฤฤฤฤมฤฤฤฤฤฤฤฤลอออออออออออออออออออออออออออออออออออออออออออออออออออณ บ
บ ณ    Sayfa  Toplam    ณ                ณ                ณ                 ณ บ
บ ภฤฤฤฤฤฤฤฤฤฤฤฤฤฤฤฤฤฤฤฤฤฤมฤฤฤฤฤฤฤฤฤฤฤฤฤฤฤฤมฤฤฤฤฤฤฤฤฤฤฤฤฤฤฤฤมฤฤฤฤฤฤฤฤฤฤฤฤฤฤฤฤฤู บ
ศออออออออออออออออออออออออออออออออออออออออออออออออออออออออออออออออออออออออออออออผ
